NAME : local_7
TYPE : ATSP
DIMENSION : 11
EDGE_WEIGHT_TYPE : EXPLICIT
EDGE_WEIGHT_FORMAT : FULL_MATRIX
EDGE_WEIGHT_SECTION
0 10000000 10000000 640 567 445 698 764 434 10000000 641 
0 0 645 10000000 10000000 10000000 10000000 10000000 770 444 973 
0 645 0 10000000 10000000 10000000 909 779 806 972 10000000 
0 10000000 10000000 0 1233 965 10000000 10000000 951 10000000 565 
0 10000000 10000000 1101 0 273 517 641 714 10000000 10000000 
0 10000000 10000000 1037 273 0 318 434 477 10000000 842 
0 10000000 909 10000000 517 318 0 136 502 10000000 973 
0 10000000 779 10000000 641 434 136 0 488 10000000 988 
0 770 806 951 714 477 502 488 0 755 690 
0 444 972 10000000 10000000 10000000 10000000 10000000 755 0 622 
0 973 10000000 565 10000000 842 957 988 690 622 0 
EOF